n = 50; 
peso = [133, 136, 27, 115, 143, 85, 136, 42, 99, 121, 62, 127, 140, 109, 113, 76, 90, 126, 22, 136, 11, 68, 117, 129, 32, 80, 62, 73, 67, 85, 29, 102, 72, 108, 119, 117, 43, 106, 61, 142, 129, 123, 21, 119, 134, 37, 98, 74, 65,  120];